NAME: PointSet_Angle_30_2
TYPE: TSP
COMMENT: Points chosen discrete uniformly at random out of ${0, \ldots, 500}^2$.
DIMENSION: 30
EDGE_WEIGHT_TYPE: EUC_2D
NODE_COORD_SECTION
1 444 290
2 144 215
3 490 434
4 425 409
5 361 466
6 406 150
7 237 452
8 109 80
9 197 363
10 491 191
11 335 144
12 143 173
13 393 427
14 154 97
15 237 91
16 1 427
17 381 393
18 142 117
19 72 66
20 272 179
21 31 425
22 329 14
23 376 439
24 94 319
25 47 332
26 256 382
27 476 400
28 301 368
29 326 201
30 212 309
EOF
